WARNING: for repeatability, setting FPU to use double precision
============================[ Problem Statistics ]=============================
|                                                                             |
|  Number of variables:            50                                         |
|  Number of clauses:             218                                         |
|  Parse time:                   0.00 s                                       |
|                                                                             |
============================[ Search Statistics ]==============================
| Conflicts |          ORIGINAL         |          LEARNT          | Progress |
|           |    Vars  Clauses Literals |    Limit  Clauses Lit/Cl |          |
===============================================================================
===============================================================================
restarts              : 1
conflicts             : 83             (54248 /sec)
decisions             : 92             (0.00 % random) (60131 /sec)
propagations          : 999            (652941 /sec)
conflict literals     : 299            (20.69 % deleted)
Memory used           : 20.00 MB
CPU time              : 0.00153 s

UNSATISFIABLE
